p cnf 311 765
1 -2 0
2 -1 0
3 4 0
5 4 0
6 4 0
7 4 0
8 4 0
9 4 0
10 4 0
11 4 0
12 4 0
-13 0
-14 4 -15 0
14 -4 -15 0
15 -4 -14 0
14 4 15 0
-15 0
5 16 0
6 16 0
7 16 0
8 16 0
9 16 0
10 16 0
11 16 0
12 16 0
-17 0
16 -18 -19 0
18 -16 -19 0
19 -16 -18 0
18 16 19 0
-19 0
6 20 0
7 20 0
8 20 0
9 20 0
10 20 0
11 20 0
12 20 0
-21 0
20 -22 -23 0
22 -20 -23 0
23 -20 -22 0
22 20 23 0
-23 0
7 24 0
8 24 0
9 24 0
10 24 0
11 24 0
12 24 0
-25 0
24 -26 -27 0
26 -24 -27 0
27 -24 -26 0
26 24 27 0
-27 0
8 28 0
9 28 0
10 28 0
11 28 0
12 28 0
-29 0
28 -30 -31 0
30 -28 -31 0
31 -28 -30 0
30 28 31 0
-31 0
28 -32 -33 0
32 -28 -33 0
33 -28 -32 0
32 28 33 0
-33 0
28 -34 -35 0
34 -28 -35 0
35 -28 -34 0
34 28 35 0
-35 0
28 -36 -37 0
36 -28 -37 0
37 -28 -36 0
36 28 37 0
-37 0
28 -38 -39 0
38 -28 -39 0
39 -28 -38 0
38 28 39 0
-39 0
40 41 0
42 41 0
43 41 0
44 41 0
45 41 0
46 41 0
47 41 0
48 41 0
49 41 0
50 41 0
-51 0
-52 41 -53 0
52 -41 -53 0
53 -41 -52 0
52 41 53 0
-53 0
42 54 0
43 54 0
44 54 0
45 54 0
46 54 0
47 54 0
48 54 0
49 54 0
50 54 0
-55 0
54 -56 -57 0
56 -54 -57 0
57 -54 -56 0
56 54 57 0
-57 0
43 58 0
44 58 0
45 58 0
46 58 0
47 58 0
48 58 0
49 58 0
50 58 0
-59 0
58 -60 -61 0
60 -58 -61 0
61 -58 -60 0
60 58 61 0
-61 0
44 62 0
45 62 0
46 62 0
47 62 0
48 62 0
49 62 0
50 62 0
-63 0
62 -64 -65 0
64 -62 -65 0
65 -62 -64 0
64 62 65 0
-65 0
45 66 0
46 66 0
47 66 0
48 66 0
49 66 0
50 66 0
-67 0
66 -68 -69 0
68 -66 -69 0
69 -66 -68 0
68 66 69 0
-69 0
46 70 0
47 70 0
48 70 0
49 70 0
50 70 0
-71 0
70 -72 -73 0
72 -70 -73 0
73 -70 -72 0
72 70 73 0
-73 0
47 74 0
48 74 0
49 74 0
50 74 0
-75 0
74 -76 -77 0
76 -74 -77 0
77 -74 -76 0
76 74 77 0
-77 0
74 -78 -79 0
78 -74 -79 0
79 -74 -78 0
78 74 79 0
-79 0
74 -80 -81 0
80 -74 -81 0
81 -74 -80 0
80 74 81 0
-81 0
74 -82 -83 0
82 -74 -83 0
83 -74 -82 0
82 74 83 0
-83 0
84 85 0
86 85 0
87 85 0
88 85 0
89 85 0
90 85 0
91 85 0
92 85 0
93 85 0
94 85 0
95 85 0
-96 0
-97 85 -98 0
97 -85 -98 0
98 -85 -97 0
97 85 98 0
-98 0
86 99 0
87 99 0
88 99 0
89 99 0
90 99 0
91 99 0
92 99 0
93 99 0
94 99 0
95 99 0
-100 0
99 -101 -102 0
101 -99 -102 0
102 -99 -101 0
101 99 102 0
-102 0
87 103 0
88 103 0
89 103 0
90 103 0
91 103 0
92 103 0
93 103 0
94 103 0
95 103 0
-104 0
103 -105 -106 0
105 -103 -106 0
106 -103 -105 0
105 103 106 0
-106 0
88 107 0
89 107 0
90 107 0
91 107 0
92 107 0
93 107 0
94 107 0
95 107 0
-108 0
107 -109 -110 0
109 -107 -110 0
110 -107 -109 0
109 107 110 0
-110 0
89 111 0
90 111 0
91 111 0
92 111 0
93 111 0
94 111 0
95 111 0
-112 0
111 -113 -114 0
113 -111 -114 0
114 -111 -113 0
113 111 114 0
-114 0
90 115 0
91 115 0
92 115 0
93 115 0
94 115 0
95 115 0
-116 0
115 -117 -118 0
117 -115 -118 0
118 -115 -117 0
117 115 118 0
-118 0
115 -119 -120 0
119 -115 -120 0
120 -115 -119 0
119 115 120 0
-120 0
115 -121 -122 0
121 -115 -122 0
122 -115 -121 0
121 115 122 0
-122 0
115 -123 -124 0
123 -115 -124 0
124 -115 -123 0
123 115 124 0
-124 0
115 -125 -126 0
125 -115 -126 0
126 -115 -125 0
125 115 126 0
-126 0
115 -127 -128 0
127 -115 -128 0
128 -115 -127 0
127 115 128 0
-128 0
6 129 0
7 129 0
8 129 0
9 129 0
10 129 0
11 129 0
12 129 0
130 129 0
131 129 0
-132 0
-133 129 -134 0
133 -129 -134 0
134 -129 -133 0
133 129 134 0
-134 0
6 135 0
7 135 0
8 135 0
9 135 0
10 135 0
11 135 0
12 135 0
131 135 0
-136 0
135 -137 -138 0
137 -135 -138 0
138 -135 -137 0
137 135 138 0
-138 0
139 140 0
141 140 0
142 140 0
143 140 0
144 140 0
145 140 0
-146 0
-147 140 -148 0
147 -140 -148 0
148 -140 -147 0
147 140 148 0
-148 0
141 149 0
142 149 0
143 149 0
144 149 0
145 149 0
-150 0
149 -151 -152 0
151 -149 -152 0
152 -149 -151 0
151 149 152 0
-152 0
149 -153 -154 0
153 -149 -154 0
154 -149 -153 0
153 149 154 0
-154 0
149 -155 -156 0
155 -149 -156 0
156 -149 -155 0
155 149 156 0
-156 0
149 -157 -158 0
157 -149 -158 0
158 -149 -157 0
157 149 158 0
-158 0
149 -159 -160 0
159 -149 -160 0
160 -149 -159 0
159 149 160 0
-160 0
161 162 0
163 162 0
164 162 0
165 162 0
166 162 0
167 162 0
168 162 0
169 162 0
170 162 0
171 162 0
172 162 0
173 162 0
-174 0
-175 162 -176 0
175 -162 -176 0
176 -162 -175 0
175 162 176 0
-176 0
163 177 0
164 177 0
165 177 0
166 177 0
167 177 0
168 177 0
169 177 0
170 177 0
171 177 0
172 177 0
173 177 0
-178 0
177 -179 -180 0
179 -177 -180 0
180 -177 -179 0
179 177 180 0
-180 0
164 181 0
165 181 0
166 181 0
167 181 0
168 181 0
169 181 0
170 181 0
171 181 0
172 181 0
173 181 0
-182 0
181 -183 -184 0
183 -181 -184 0
184 -181 -183 0
183 181 184 0
-184 0
165 185 0
166 185 0
167 185 0
168 185 0
169 185 0
170 185 0
171 185 0
172 185 0
173 185 0
-186 0
185 -187 -188 0
187 -185 -188 0
188 -185 -187 0
187 185 188 0
-188 0
166 189 0
167 189 0
168 189 0
169 189 0
170 189 0
171 189 0
172 189 0
173 189 0
-190 0
189 -191 -192 0
191 -189 -192 0
192 -189 -191 0
191 189 192 0
-192 0
167 193 0
168 193 0
169 193 0
170 193 0
171 193 0
172 193 0
173 193 0
-194 0
193 -195 -196 0
195 -193 -196 0
196 -193 -195 0
195 193 196 0
-196 0
168 197 0
169 197 0
170 197 0
171 197 0
172 197 0
173 197 0
-198 0
197 -199 -200 0
199 -197 -200 0
200 -197 -199 0
199 197 200 0
-200 0
197 -201 -202 0
201 -197 -202 0
202 -197 -201 0
201 197 202 0
-202 0
197 -203 -204 0
203 -197 -204 0
204 -197 -203 0
203 197 204 0
-204 0
197 -205 -206 0
205 -197 -206 0
206 -197 -205 0
205 197 206 0
-206 0
197 -207 -208 0
207 -197 -208 0
208 -197 -207 0
207 197 208 0
-208 0
197 -209 -210 0
209 -197 -210 0
210 -197 -209 0
209 197 210 0
-210 0
211 212 0
213 212 0
214 212 0
215 212 0
216 212 0
217 212 0
218 212 0
-219 0
-220 212 -221 0
220 -212 -221 0
221 -212 -220 0
220 212 221 0
-221 0
213 222 0
214 222 0
215 222 0
216 222 0
217 222 0
218 222 0
-223 0
222 -224 -225 0
224 -222 -225 0
225 -222 -224 0
224 222 225 0
-225 0
214 226 0
215 226 0
216 226 0
217 226 0
218 226 0
-227 0
226 -228 -229 0
228 -226 -229 0
229 -226 -228 0
228 226 229 0
-229 0
215 230 0
216 230 0
217 230 0
218 230 0
-231 0
230 -232 -233 0
232 -230 -233 0
233 -230 -232 0
232 230 233 0
-233 0
216 234 0
217 234 0
218 234 0
-216 -217 -218 -234 0
234 -235 -236 0
235 -234 -236 0
236 -234 -235 0
235 234 236 0
-236 0
217 237 0
218 237 0
-217 -218 -237 0
237 -238 -239 0
238 -237 -239 0
239 -237 -238 0
238 237 239 0
-239 0
237 -240 -241 0
240 -237 -241 0
241 -237 -240 0
240 237 241 0
-241 0
242 243 0
244 243 0
245 243 0
246 243 0
247 243 0
248 243 0
249 243 0
250 243 0
251 243 0
252 243 0
253 243 0
254 243 0
-255 0
-256 243 -257 0
256 -243 -257 0
257 -243 -256 0
256 243 257 0
-257 0
244 258 0
245 258 0
246 258 0
247 258 0
248 258 0
249 258 0
250 258 0
251 258 0
252 258 0
253 258 0
254 258 0
-259 0
258 -260 -261 0
260 -258 -261 0
261 -258 -260 0
260 258 261 0
-261 0
245 262 0
246 262 0
247 262 0
248 262 0
249 262 0
250 262 0
251 262 0
252 262 0
253 262 0
254 262 0
-263 0
262 -264 -265 0
264 -262 -265 0
265 -262 -264 0
264 262 265 0
-265 0
246 266 0
247 266 0
248 266 0
249 266 0
250 266 0
251 266 0
252 266 0
253 266 0
254 266 0
-267 0
266 -268 -269 0
268 -266 -269 0
269 -266 -268 0
268 266 269 0
-269 0
247 270 0
248 270 0
249 270 0
250 270 0
251 270 0
252 270 0
253 270 0
254 270 0
-271 0
270 -272 -273 0
272 -270 -273 0
273 -270 -272 0
272 270 273 0
-273 0
248 274 0
249 274 0
250 274 0
251 274 0
252 274 0
253 274 0
254 274 0
-275 0
274 -276 -277 0
276 -274 -277 0
277 -274 -276 0
276 274 277 0
-277 0
249 278 0
250 278 0
251 278 0
252 278 0
253 278 0
254 278 0
-279 0
278 -280 -281 0
280 -278 -281 0
281 -278 -280 0
280 278 281 0
-281 0
278 -282 -283 0
282 -278 -283 0
283 -278 -282 0
282 278 283 0
-283 0
278 -284 -285 0
284 -278 -285 0
285 -278 -284 0
284 278 285 0
-285 0
278 -286 -287 0
286 -278 -287 0
287 -278 -286 0
286 278 287 0
-287 0
278 -288 -289 0
288 -278 -289 0
289 -278 -288 0
288 278 289 0
-289 0
278 -290 -291 0
290 -278 -291 0
291 -278 -290 0
290 278 291 0
-291 0
47 292 0
48 292 0
49 292 0
50 292 0
293 292 0
294 292 0
295 292 0
296 292 0
-297 0
-298 292 -299 0
298 -292 -299 0
299 -292 -298 0
298 292 299 0
-299 0
47 300 0
48 300 0
49 300 0
50 300 0
294 300 0
295 300 0
296 300 0
-301 0
300 -302 -303 0
302 -300 -303 0
303 -300 -302 0
302 300 303 0
-303 0
47 304 0
48 304 0
49 304 0
50 304 0
295 304 0
296 304 0
-305 0
304 -306 -307 0
306 -304 -307 0
307 -304 -306 0
306 304 307 0
-307 0
47 308 0
48 308 0
49 308 0
50 308 0
296 308 0
-309 0
308 -310 -311 0
310 -308 -311 0
311 -308 -310 0
310 308 311 0
-311 0
1 0
-14 0
-52 0
-97 0
-133 0
-147 0
-175 0
-220 0
-256 0
-298 0
